c leafs=56, vars=14, seed=1, tickle=1, pretickle_path=1
p cnf 701 1894                                                                
e 15 16 17 18 19 20 21 22 23 24 25 26 27 28 29 30 31 32 33 34 35 36 37 38 39 40 41 42 43 44 45 46 47 48 49 50 51 52 53 54 55 56 57 58 59 60 61 62 63 64 65 66 67 68 69 70  0
a 1 2 3 4 5 6 7 8 9 10 11 12 13 14  0
e 71 72 73 74 75 76 77 78 79 80 81 82 83 84 85 86 87 88 89 90 91 92 93 94 95 96 97 98 99 100 101 102 103 104 105 106 107 108 109 110 111 112 113 114 115 116 117 118 119 120 121 122 123 124 125 126 127 128 129 130 131 132 133 134 135 136 137 138 139 140 141 142 143 144 145 146 147 148 149 150 151 152 153 154 155 156 157 158 159 160 161 162 163 164 165 166 167 168 169 170 171 172 173 174 175 176 177 178 179 180 181 182 183 184 185 186 187 188 189 190 191 192 193 194 195 196 197 198 199 200 201 202 203 204 205 206 207 208 209 210 211 212 213 214 215 216 217 218 219 220 221 222 223 224 225 226 227 228 229 230 231 232 233 234 235 236 237 238 239 240 241 242 243 244 245 246 247 248 249 250 251 252 253 254 255 256 257 258 259 260 261 262 263 264 265 266 267 268 269 270 271 272 273 274 275 276 277 278 279 280 281 282 283 284 285 286 287 288 289 290 291 292 293 294 295 296 297 298 299 300 301 302 303 304 305 306 307 308 309 310 311 312 313 314 315 316 317 318 319 320 321 322 323 324 325 326 327 328 329 330 331 332 333 334 335 336 337 338 339 340 341 342 343 344 345 346 347 348 349 350 351 352 353 354 355 356 357 358 359 360 361 362 363 364 365 366 367 368 369 370 371 372 373 374 375 376 377 378 379 380 381 382 383 384 385 386 387 388 389 390 391 392 393 394 395 396 397 398 399 400 401 402 403 404 405 406 407 408 409 410 411 412 413 414 415 416 417 418 419 420 421 422 423 424 425 426 427 428 429 430 431 432 433 434 435 436 437 438 439 440 441 442 443 444 445 446 447 448 449 450 451 452 453 454 455 456 457 458 459 460 461 462 463 464 465 466 467 468 469 470 471 472 473 474 475 476 477 478 479 480 481 482 483 484 485 486 487 488 489 490 491 492 493 494 495 496 497 498 499 500 501 502 503 504 505 506 507 508 509 510 511 512 513 514 515 516 517 518 519 520 521 522 523 524 525 526 527 528 529 530 531 532 533 534 535 536 537 538 539 540 541 542 543 544 545 546 547 548 549 550 551 552 553 554 555 556 557 558 559 560 561 562 563 564 565 566 567 568 569 570 571 572 573 574 575 576 577 578 579 580 581 582 583 584 585 586 587 588 589 590 591 592 593 594 595 596 597 598 599 600 601 602 603 604 605 606 607 608 609 610 611 612 613 614 615 616 617 618 619 620 621 622 623 624 625 626 627 628 629 630 631 632 633 634 635 636 637 638 639 640 641 642 643 644 645 646 647 648 649 650 651 652 653 654 655 656 657 658 659 660 661 662 663 664 665 666 667 668 669 670 671 672 673 674 675 676 677 678 679 680 681 682 683 684 685 686 687 688 689 690 691 692 693 694 695 696 697 698 699 700 701  0
701  0
71 54 -8  0
-71 -54  0
-71 8  0
72 -3 -54  0
-72 3  0
-72 54  0
73 53 1  0
-73 -53  0
-73 -1  0
74 3 -53  0
-74 -3  0
-74 53  0
75 -5 -55  0
-75 5  0
-75 55  0
76 55 -14  0
-76 -55  0
-76 14  0
77 56 -4  0
-77 -56  0
-77 4  0
78 11 -56  0
-78 -11  0
-78 56  0
79 13 -50  0
-79 -13  0
-79 50  0
80 50 -7  0
-80 -50  0
-80 7  0
-81 -52 -8  0
81 52  0
81 8  0
-82 -11 52  0
82 11  0
82 -52  0
-83 6 51  0
83 -6  0
83 -51  0
-84 -51 -10  0
84 51  0
84 10  0
85 -10 -44  0
-85 10  0
-85 44  0
86 44 -13  0
-86 -44  0
-86 13  0
87 43 -5  0
-87 -43  0
-87 5  0
88 -3 -43  0
-88 3  0
-88 43  0
-89 -46 -2  0
89 46  0
89 2  0
-90 -1 46  0
90 1  0
90 -46  0
-91 -5 45  0
91 5  0
91 -45  0
-92 -45 -6  0
92 45  0
92 6  0
-93 14 47  0
93 -14  0
93 -47  0
-94 -47 10  0
94 47  0
94 -10  0
-95 -48 -2  0
95 48  0
95 2  0
-96 -11 48  0
96 11  0
96 -48  0
-97 -49 8  0
97 49  0
97 -8  0
-98 -10 49  0
98 10  0
98 -49  0
99 68 13  0
-99 -68  0
-99 -13  0
100 -1 -68  0
-100 1  0
-100 68  0
101 67 -14  0
-101 -67  0
-101 14  0
102 -3 -67  0
-102 3  0
-102 67  0
-103 -69 -6  0
103 69  0
103 6  0
-104 12 69  0
104 -12  0
104 -69  0
-105 -10 70  0
105 10  0
105 -70  0
-106 -70 11  0
106 70  0
106 -11  0
-107 8 64  0
107 -8  0
107 -64  0
-108 -64 -7  0
108 64  0
108 7  0
109 65 -5  0
-109 -65  0
-109 5  0
110 13 -65  0
-110 -13  0
-110 65  0
111 66 -1  0
-111 -66  0
-111 1  0
112 11 -66  0
-112 -11  0
-112 66  0
113 3 -62  0
-113 -3  0
-113 62  0
114 62 11  0
-114 -62  0
-114 -11  0
115 -10 -63  0
-115 10  0
-115 63  0
116 63 -4  0
-116 -63  0
-116 4  0
117 60 12  0
-117 -60  0
-117 -12  0
118 -7 -60  0
-118 7  0
-118 60  0
119 -14 -61  0
-119 14  0
-119 61  0
120 61 9  0
-120 -61  0
-120 -9  0
121 6 -57  0
-121 -6  0
-121 57  0
122 57 -1  0
-122 -57  0
-122 1  0
123 59 12  0
-123 -59  0
-123 -12  0
124 -7 -59  0
-124 7  0
-124 59  0
125 -2 -58  0
-125 2  0
-125 58  0
126 58 -4  0
-126 -58  0
-126 4  0
127 29 -9  0
-127 -29  0
-127 9  0
128 -11 -29  0
-128 11  0
-128 29  0
129 14 -30  0
-129 -14  0
-129 30  0
130 30 -13  0
-130 -30  0
-130 13  0
131 32 -7  0
-131 -32  0
-131 7  0
132 -12 -32  0
-132 12  0
-132 32  0
133 -6 -31  0
-133 6  0
-133 31  0
134 31 -14  0
-134 -31  0
-134 14  0
-135 1 35  0
135 -1  0
135 -35  0
-136 -35 12  0
136 35  0
136 -12  0
-137 -6 34  0
137 6  0
137 -34  0
-138 -34 14  0
138 34  0
138 -14  0
139 2 -33  0
-139 -2  0
-139 33  0
140 33 3  0
-140 -33  0
-140 -3  0
-141 -38 -1  0
141 38  0
141 1  0
-142 -2 38  0
142 2  0
142 -38  0
-143 -8 37  0
143 8  0
143 -37  0
-144 -37 5  0
144 37  0
144 -5  0
145 36 13  0
-145 -36  0
-145 -13  0
146 11 -36  0
-146 -11  0
-146 36  0
147 39 3  0
-147 -39  0
-147 -3  0
148 -6 -39  0
-148 6  0
-148 39  0
149 -9 -40  0
-149 9  0
-149 40  0
150 40 -14  0
-150 -40  0
-150 14  0
151 5 -41  0
-151 -5  0
-151 41  0
152 41 10  0
-152 -41  0
-152 -10  0
153 42 -12  0
-153 -42  0
-153 12  0
154 7 -42  0
-154 -7  0
-154 42  0
155 -7 -22  0
-155 7  0
-155 22  0
156 22 4  0
-156 -22  0
-156 -4  0
157 -6 -23  0
-157 6  0
-157 23  0
158 23 -11  0
-158 -23  0
-158 11  0
-159 -5 25  0
159 5  0
159 -25  0
-160 -25 13  0
160 25  0
160 -13  0
-161 9 24  0
161 -9  0
161 -24  0
-162 -24 -14  0
162 24  0
162 14  0
163 28 -1  0
-163 -28  0
-163 1  0
164 -3 -28  0
-164 3  0
-164 28  0
-165 -27 -9  0
165 27  0
165 9  0
-166 -5 27  0
166 5  0
166 -27  0
-167 -26 -10  0
167 26  0
167 10  0
-168 -6 26  0
168 6  0
168 -26  0
169 -4 -16  0
-169 4  0
-169 16  0
170 16 -12  0
-170 -16  0
-170 12  0
171 15 -5  0
-171 -15  0
-171 5  0
172 -1 -15  0
-172 1  0
-172 15  0
173 -10 -17  0
-173 10  0
-173 17  0
174 17 12  0
-174 -17  0
-174 -12  0
175 21 -11  0
-175 -21  0
-175 11  0
176 14 -21  0
-176 -14  0
-176 21  0
177 20 12  0
-177 -20  0
-177 -12  0
178 2 -20  0
-178 -2  0
-178 20  0
-179 -7 18  0
179 7  0
179 -18  0
-180 -18 -12  0
180 18  0
180 12  0
-181 -4 19  0
181 4  0
181 -19  0
-182 -19 9  0
182 19  0
182 -9  0
-183 -8 1  0
183 8  0
183 -1  0
-184 -1 8  0
184 1  0
184 -8  0
-185 2 6  0
185 -2  0
185 -6  0
-186 -6 -2  0
186 6  0
186 2  0
-187 -13 -3  0
187 13  0
187 3  0
-188 3 13  0
188 -3  0
188 -13  0
-189 -14 1  0
189 14  0
189 -1  0
-190 -1 14  0
190 1  0
190 -14  0
-191 1 14  0
191 -1  0
191 -14  0
-192 -14 -1  0
192 14  0
192 1  0
-193 -10 12  0
193 10  0
193 -12  0
-194 -12 10  0
194 12  0
194 -10  0
-195 -7 -5  0
195 7  0
195 5  0
-196 5 7  0
196 -5  0
196 -7  0
-197 -9 3  0
197 9  0
197 -3  0
-198 -3 9  0
198 3  0
198 -9  0
-199 -13 1  0
199 13  0
199 -1  0
-200 -13 -1  0
200 13  0
200 1  0
-201 -12 14  0
201 12  0
201 -14  0
-202 -14 12  0
202 14  0
202 -12  0
-203 -12 3  0
203 12  0
203 -3  0
-204 3 12  0
204 -3  0
204 -12  0
205 13 -9  0
-205 -13  0
-205 9  0
206 9 -13  0
-206 -9  0
-206 13  0
-207 -5 -1  0
207 5  0
207 1  0
-208 -1 5  0
208 1  0
208 -5  0
-209 -11 2  0
209 11  0
209 -2  0
-210 -2 11  0
210 2  0
210 -11  0
211 -4 -5  0
-211 4  0
-211 5  0
212 5 4  0
-212 -5  0
-212 -4  0
-213 -11 -2  0
213 11  0
213 2  0
-214 2 11  0
214 -2  0
214 -11  0
215 -4 -11  0
-215 4  0
-215 11  0
216 11 4  0
-216 -11  0
-216 -4  0
-217 -6 7  0
217 6  0
217 -7  0
-218 -7 6  0
218 7  0
218 -6  0
219 -3 -9  0
-219 3  0
-219 9  0
220 9 3  0
-220 -9  0
-220 -3  0
221 7 -5  0
-221 -7  0
-221 5  0
222 5 -7  0
-222 -5  0
-222 7  0
223 -12 -14  0
-223 12  0
-223 14  0
224 14 12  0
-224 -14  0
-224 -12  0
-225 -2 7  0
225 2  0
225 -7  0
-226 -7 2  0
226 7  0
226 -2  0
-227 9 12  0
227 -9  0
227 -12  0
-228 -12 -9  0
228 12  0
228 9  0
-229 -7 -2  0
229 7  0
229 2  0
-230 2 7  0
230 -2  0
230 -7  0
-231 11 13  0
231 -11  0
231 -13  0
-232 -13 -11  0
232 13  0
232 11  0
233 12 10  0
-233 -12  0
-233 -10  0
234 -10 -12  0
-234 10  0
-234 12  0
-235 71 72  0
235 -71  0
235 -72  0
-236 73 74  0
236 -73  0
236 -74  0
-237 75 76  0
237 -75  0
237 -76  0
-238 77 78  0
238 -77  0
238 -78  0
-239 79 80  0
239 -79  0
239 -80  0
240 -81 -82  0
-240 81  0
-240 82  0
241 -83 -84  0
-241 83  0
-241 84  0
-242 85 86  0
242 -85  0
242 -86  0
-243 87 88  0
243 -87  0
243 -88  0
244 -89 -90  0
-244 89  0
-244 90  0
245 -91 -92  0
-245 91  0
-245 92  0
246 -93 -94  0
-246 93  0
-246 94  0
247 -95 -96  0
-247 95  0
-247 96  0
248 -97 -98  0
-248 97  0
-248 98  0
-249 99 100  0
249 -99  0
249 -100  0
-250 101 102  0
250 -101  0
250 -102  0
251 -103 -104  0
-251 103  0
-251 104  0
252 -105 -106  0
-252 105  0
-252 106  0
253 -107 -108  0
-253 107  0
-253 108  0
-254 109 110  0
254 -109  0
254 -110  0
-255 111 112  0
255 -111  0
255 -112  0
-256 113 114  0
256 -113  0
256 -114  0
-257 115 116  0
257 -115  0
257 -116  0
-258 117 118  0
258 -117  0
258 -118  0
-259 119 120  0
259 -119  0
259 -120  0
-260 121 122  0
260 -121  0
260 -122  0
-261 123 124  0
261 -123  0
261 -124  0
-262 125 126  0
262 -125  0
262 -126  0
-263 127 128  0
263 -127  0
263 -128  0
-264 129 130  0
264 -129  0
264 -130  0
-265 131 132  0
265 -131  0
265 -132  0
-266 133 134  0
266 -133  0
266 -134  0
267 -135 -136  0
-267 135  0
-267 136  0
268 -137 -138  0
-268 137  0
-268 138  0
-269 139 140  0
269 -139  0
269 -140  0
270 -141 -142  0
-270 141  0
-270 142  0
271 -143 -144  0
-271 143  0
-271 144  0
-272 145 146  0
272 -145  0
272 -146  0
-273 147 148  0
273 -147  0
273 -148  0
-274 149 150  0
274 -149  0
274 -150  0
-275 151 152  0
275 -151  0
275 -152  0
-276 153 154  0
276 -153  0
276 -154  0
-277 155 156  0
277 -155  0
277 -156  0
-278 157 158  0
278 -157  0
278 -158  0
279 -159 -160  0
-279 159  0
-279 160  0
280 -161 -162  0
-280 161  0
-280 162  0
-281 163 164  0
281 -163  0
281 -164  0
282 -165 -166  0
-282 165  0
-282 166  0
283 -167 -168  0
-283 167  0
-283 168  0
-284 169 170  0
284 -169  0
284 -170  0
-285 171 172  0
285 -171  0
285 -172  0
-286 173 174  0
286 -173  0
286 -174  0
-287 175 176  0
287 -175  0
287 -176  0
-288 177 178  0
288 -177  0
288 -178  0
289 -179 -180  0
-289 179  0
-289 180  0
290 -181 -182  0
-290 181  0
-290 182  0
291 -183 -184  0
-291 183  0
-291 184  0
292 -185 -186  0
-292 185  0
-292 186  0
293 -187 -188  0
-293 187  0
-293 188  0
294 -189 -190  0
-294 189  0
-294 190  0
295 -191 -192  0
-295 191  0
-295 192  0
296 -193 -194  0
-296 193  0
-296 194  0
297 -195 -196  0
-297 195  0
-297 196  0
298 -197 -198  0
-298 197  0
-298 198  0
-299 -8 199  0
299 8  0
299 -199  0
-300 8 200  0
300 -8  0
300 -200  0
301 -201 -202  0
-301 201  0
-301 202  0
-302 -14 203  0
302 14  0
302 -203  0
-303 14 204  0
303 -14  0
303 -204  0
-304 205 206  0
304 -205  0
304 -206  0
-305 -6 207  0
305 6  0
305 -207  0
-306 6 208  0
306 -6  0
306 -208  0
307 -209 -210  0
-307 209  0
-307 210  0
-308 211 212  0
308 -211  0
308 -212  0
309 -213 -214  0
-309 213  0
-309 214  0
-310 215 216  0
310 -215  0
310 -216  0
311 -217 -218  0
-311 217  0
-311 218  0
-312 219 220  0
312 -219  0
312 -220  0
-313 221 222  0
313 -221  0
313 -222  0
-314 223 224  0
314 -223  0
314 -224  0
315 -225 -226  0
-315 225  0
-315 226  0
316 -227 -228  0
-316 227  0
-316 228  0
317 -229 -230  0
-317 229  0
-317 230  0
318 -231 -232  0
-318 231  0
-318 232  0
-319 233 234  0
319 -233  0
319 -234  0
-320 -14 -203  0
320 14  0
320 203  0
-321 14 -204  0
321 -14  0
321 204  0
322 -235 -236  0
-322 235  0
-322 236  0
323 236 235  0
-323 -236  0
-323 -235  0
324 -237 -238  0
-324 237  0
-324 238  0
325 238 237  0
-325 -238  0
-325 -237  0
326 -240 -241  0
-326 240  0
-326 241  0
327 241 240  0
-327 -241  0
-327 -240  0
-328 242 243  0
328 -242  0
328 -243  0
-329 -242 -243  0
329 242  0
329 243  0
-330 244 245  0
330 -244  0
330 -245  0
-331 -245 -244  0
331 245  0
331 244  0
-332 246 247  0
332 -246  0
332 -247  0
-333 -246 -247  0
333 246  0
333 247  0
-334 249 250  0
334 -249  0
334 -250  0
-335 -249 -250  0
335 249  0
335 250  0
-336 251 252  0
336 -251  0
336 -252  0
-337 -252 -251  0
337 252  0
337 251  0
-338 254 255  0
338 -254  0
338 -255  0
-339 -255 -254  0
339 255  0
339 254  0
340 -256 -257  0
-340 256  0
-340 257  0
341 257 256  0
-341 -257  0
-341 -256  0
342 -258 -259  0
-342 258  0
-342 259  0
343 259 258  0
-343 -259  0
-343 -258  0
344 -261 -262  0
-344 261  0
-344 262  0
345 261 262  0
-345 -261  0
-345 -262  0
346 -263 -264  0
-346 263  0
-346 264  0
347 263 264  0
-347 -263  0
-347 -264  0
348 -265 -266  0
-348 265  0
-348 266  0
349 265 266  0
-349 -265  0
-349 -266  0
350 -267 -268  0
-350 267  0
-350 268  0
351 267 268  0
-351 -267  0
-351 -268  0
352 -270 -271  0
-352 270  0
-352 271  0
353 270 271  0
-353 -270  0
-353 -271  0
354 -273 -274  0
-354 273  0
-354 274  0
355 274 273  0
-355 -274  0
-355 -273  0
356 -275 -276  0
-356 275  0
-356 276  0
357 275 276  0
-357 -275  0
-357 -276  0
358 -277 -278  0
-358 277  0
-358 278  0
359 278 277  0
-359 -278  0
-359 -277  0
360 -279 -280  0
-360 279  0
-360 280  0
361 280 279  0
-361 -280  0
-361 -279  0
362 -282 -283  0
-362 282  0
-362 283  0
363 283 282  0
-363 -283  0
-363 -282  0
364 -284 -285  0
-364 284  0
-364 285  0
365 285 284  0
-365 -285  0
-365 -284  0
366 -287 -288  0
-366 287  0
-366 288  0
367 287 288  0
-367 -287  0
-367 -288  0
368 -289 -290  0
-368 289  0
-368 290  0
369 290 289  0
-369 -290  0
-369 -289  0
-370 292 293  0
370 -292  0
370 -293  0
-371 12 294  0
371 -12  0
371 -294  0
-372 -12 294  0
372 12  0
372 -294  0
373 -295 -296  0
-373 295  0
-373 296  0
374 -297 -298  0
-374 297  0
-374 298  0
375 -299 -300  0
-375 299  0
-375 300  0
376 3 -301  0
-376 -3  0
-376 301  0
377 -302 -303  0
-377 302  0
-377 303  0
378 -305 -306  0
-378 305  0
-378 306  0
-379 9 307  0
379 -9  0
379 -307  0
-380 -9 307  0
380 9  0
380 -307  0
381 -9 -309  0
-381 9  0
-381 309  0
382 9 -309  0
-382 -9  0
-382 309  0
383 13 -311  0
-383 -13  0
-383 311  0
384 -13 -311  0
-384 13  0
-384 311  0
385 -312 -313  0
-385 312  0
-385 313  0
386 -10 -316  0
-386 10  0
-386 316  0
387 10 -316  0
-387 -10  0
-387 316  0
388 -8 -318  0
-388 8  0
-388 318  0
-389 3 -314  0
389 -3  0
389 314  0
390 -320 -321  0
-390 320  0
-390 321  0
-391 294 -319  0
391 -294  0
391 319  0
392 -12 -295  0
-392 12  0
-392 295  0
393 12 -295  0
-393 -12  0
-393 295  0
-394 322 323  0
394 -322  0
394 -323  0
-395 324 325  0
395 -324  0
395 -325  0
-396 326 327  0
396 -326  0
396 -327  0
397 -328 -329  0
-397 328  0
-397 329  0
398 -330 -331  0
-398 330  0
-398 331  0
399 -332 -333  0
-399 332  0
-399 333  0
400 -334 -335  0
-400 334  0
-400 335  0
401 -336 -337  0
-401 336  0
-401 337  0
402 -338 -339  0
-402 338  0
-402 339  0
-403 340 341  0
403 -340  0
403 -341  0
-404 342 343  0
404 -342  0
404 -343  0
-405 344 345  0
405 -344  0
405 -345  0
-406 346 347  0
406 -346  0
406 -347  0
-407 348 349  0
407 -348  0
407 -349  0
-408 350 351  0
408 -350  0
408 -351  0
-409 352 353  0
409 -352  0
409 -353  0
-410 354 355  0
410 -354  0
410 -355  0
-411 356 357  0
411 -356  0
411 -357  0
-412 358 359  0
412 -358  0
412 -359  0
-413 360 361  0
413 -360  0
413 -361  0
-414 362 363  0
414 -362  0
414 -363  0
-415 364 365  0
415 -364  0
415 -365  0
-416 366 367  0
416 -366  0
416 -367  0
-417 368 369  0
417 -368  0
417 -369  0
-418 -8 370  0
418 8  0
418 -370  0
419 -14 370  0
-419 14  0
-419 -370  0
420 14 -370  0
-420 -14  0
-420 370  0
-421 10 371  0
421 -10  0
421 -371  0
-422 -10 372  0
422 10  0
422 -372  0
-423 11 373  0
423 -11  0
423 -373  0
-424 -11 373  0
424 11  0
424 -373  0
-425 374 375  0
425 -374  0
425 -375  0
-426 -375 -374  0
426 375  0
426 374  0
-427 -7 376  0
427 7  0
427 -376  0
-428 7 377  0
428 -7  0
428 -377  0
-429 -7 377  0
429 7  0
429 -377  0
-430 7 376  0
430 -7  0
430 -376  0
-431 -304 377  0
431 304  0
431 -377  0
-432 -7 379  0
432 7  0
432 -379  0
-433 7 380  0
433 -7  0
433 -380  0
-434 7 381  0
434 -7  0
434 -381  0
-435 -7 382  0
435 7  0
435 -382  0
-436 9 383  0
436 -9  0
436 -383  0
-437 -9 384  0
437 9  0
437 -384  0
-438 -375 385  0
438 375  0
438 -385  0
-439 -385 375  0
439 385  0
439 -375  0
-440 -11 386  0
440 11  0
440 -386  0
-441 11 387  0
441 -11  0
441 -387  0
-442 -7 389  0
442 7  0
442 -389  0
-443 7 390  0
443 -7  0
443 -390  0
-444 -7 390  0
444 7  0
444 -390  0
-445 7 389  0
445 -7  0
445 -389  0
-446 -304 390  0
446 304  0
446 -390  0
-447 -11 391  0
447 11  0
447 -391  0
-448 -10 392  0
448 10  0
448 -392  0
-449 10 393  0
449 -10  0
449 -393  0
-450 11 391  0
450 -11  0
450 -391  0
-451 394 395  0
451 -394  0
451 -395  0
-452 239 396  0
452 -239  0
452 -396  0
-453 397 398  0
453 -397  0
453 -398  0
-454 399 248  0
454 -399  0
454 -248  0
455 -400 -401  0
-455 400  0
-455 401  0
456 -253 -402  0
-456 253  0
-456 402  0
-457 403 404  0
457 -403  0
457 -404  0
-458 260 405  0
458 -260  0
458 -405  0
459 -406 -407  0
-459 406  0
-459 407  0
460 -408 -269  0
-460 408  0
-460 269  0
-461 409 272  0
461 -409  0
461 -272  0
-462 410 411  0
462 -410  0
462 -411  0
463 -412 -413  0
-463 412  0
-463 413  0
464 -281 -414  0
-464 281  0
-464 414  0
465 -415 -286  0
-465 415  0
-465 286  0
466 -416 -417  0
-466 416  0
-466 417  0
-467 419 420  0
467 -419  0
467 -420  0
468 -421 -422  0
-468 421  0
-468 422  0
469 -425 -426  0
-469 425  0
-469 426  0
470 -427 -428  0
-470 427  0
-470 428  0
471 -429 -430  0
-471 429  0
-471 430  0
472 -432 -433  0
-472 432  0
-472 433  0
473 -434 -435  0
-473 434  0
-473 435  0
474 -436 -437  0
-474 436  0
-474 437  0
475 -438 -439  0
-475 438  0
-475 439  0
476 -440 -441  0
-476 440  0
-476 441  0
477 -442 -443  0
-477 442  0
-477 443  0
478 -444 -445  0
-478 444  0
-478 445  0
479 -448 -449  0
-479 448  0
-479 449  0
-480 451 452  0
480 -451  0
480 -452  0
-481 -451 -452  0
481 451  0
481 452  0
-482 453 454  0
482 -453  0
482 -454  0
-483 -454 -453  0
483 454  0
483 453  0
-484 455 456  0
484 -455  0
484 -456  0
-485 -455 -456  0
485 455  0
485 456  0
-486 457 458  0
486 -457  0
486 -458  0
-487 -457 -458  0
487 457  0
487 458  0
488 -459 -460  0
-488 459  0
-488 460  0
489 460 459  0
-489 -460  0
-489 -459  0
490 -461 -462  0
-490 461  0
-490 462  0
491 462 461  0
-491 -462  0
-491 -461  0
492 -463 -464  0
-492 463  0
-492 464  0
493 464 463  0
-493 -464  0
-493 -463  0
494 -465 -466  0
-494 465  0
-494 466  0
495 466 465  0
-495 -466  0
-495 -465  0
-496 11 467  0
496 -11  0
496 -467  0
-497 -11 -467  0
497 11  0
497 467  0
-498 8 468  0
498 -8  0
498 -468  0
-499 -11 468  0
499 11  0
499 -468  0
-500 11 468  0
500 -11  0
500 -468  0
-501 -6 470  0
501 6  0
501 -470  0
-502 6 471  0
502 -6  0
502 -471  0
-503 472 308  0
503 -472  0
503 -308  0
-504 -10 473  0
504 10  0
504 -473  0
-505 10 -473  0
505 -10  0
505 473  0
-506 475 314  0
506 -475  0
506 -314  0
-507 -3 475  0
507 3  0
507 -475  0
-508 3 475  0
508 -3  0
508 -475  0
-509 -6 477  0
509 6  0
509 -477  0
-510 6 478  0
510 -6  0
510 -478  0
511 3 -469  0
-511 -3  0
-511 469  0
512 -3 -469  0
-512 3  0
-512 469  0
-513 469 314  0
513 -469  0
513 -314  0
-514 11 479  0
514 -11  0
514 -479  0
-515 -11 479  0
515 11  0
515 -479  0
-516 8 479  0
516 -8  0
516 -479  0
517 -480 -481  0
-517 480  0
-517 481  0
518 -482 -483  0
-518 482  0
-518 483  0
519 -484 -485  0
-519 484  0
-519 485  0
520 -486 -487  0
-520 486  0
-520 487  0
-521 488 489  0
521 -488  0
521 -489  0
-522 490 491  0
522 -490  0
522 -491  0
-523 492 493  0
523 -492  0
523 -493  0
-524 494 495  0
524 -494  0
524 -495  0
525 -496 -497  0
-525 496  0
-525 497  0
526 -499 -423  0
-526 499  0
-526 423  0
527 -500 -424  0
-527 500  0
-527 424  0
528 -501 -502  0
-528 501  0
-528 502  0
529 -504 -505  0
-529 504  0
-529 505  0
-530 -314 507  0
530 314  0
530 -507  0
-531 -314 508  0
531 314  0
531 -508  0
532 -509 -510  0
-532 509  0
-532 510  0
533 -511 -301  0
-533 511  0
-533 301  0
-534 -314 512  0
534 314  0
534 -512  0
535 -447 -514  0
-535 447  0
-535 514  0
536 -515 -450  0
-536 515  0
-536 450  0
537 -517 -518  0
-537 517  0
-537 518  0
-538 519 520  0
538 -519  0
538 -520  0
539 -521 -522  0
-539 521  0
-539 522  0
-540 523 524  0
540 -523  0
540 -524  0
-541 8 525  0
541 -8  0
541 -525  0
-542 -13 526  0
542 13  0
542 -526  0
-543 13 527  0
543 -13  0
543 -527  0
-544 528 304  0
544 -528  0
544 -304  0
-545 -308 529  0
545 308  0
545 -529  0
546 -506 -530  0
-546 506  0
-546 530  0
-547 531 -474  0
547 -531  0
547 474  0
-548 532 304  0
548 -532  0
548 -304  0
-549 533 -474  0
549 -533  0
549 474  0
550 -534 -513  0
-550 534  0
-550 513  0
-551 13 535  0
551 -13  0
551 -535  0
-552 -13 536  0
552 13  0
552 -536  0
553 -537 -538  0
-553 537  0
-553 538  0
554 538 537  0
-554 -538  0
-554 -537  0
555 -539 -540  0
-555 539  0
-555 540  0
556 539 540  0
-556 -539  0
-556 -540  0
557 -418 -541  0
-557 418  0
-557 541  0
558 -542 -543  0
-558 542  0
-558 543  0
559 -544 -431  0
-559 544  0
-559 431  0
560 -503 -545  0
-560 503  0
-560 545  0
-561 474 546  0
561 -474  0
561 -546  0
562 -548 -446  0
-562 548  0
-562 446  0
-563 474 550  0
563 -474  0
563 -550  0
564 -551 -552  0
-564 551  0
-564 552  0
-565 553 554  0
565 -553  0
565 -554  0
-566 555 556  0
566 -555  0
566 -556  0
-567 11 557  0
567 -11  0
567 -557  0
-568 -11 557  0
568 11  0
568 -557  0
-569 7 557  0
569 -7  0
569 -557  0
-570 -8 558  0
570 8  0
570 -558  0
571 -469 -559  0
-571 469  0
-571 559  0
-572 -14 560  0
572 14  0
572 -560  0
-573 14 560  0
573 -14  0
573 -560  0
-574 -310 560  0
574 310  0
574 -560  0
575 -561 -547  0
-575 561  0
-575 547  0
-576 562 475  0
576 -562  0
576 -475  0
577 -549 -563  0
-577 549  0
-577 563  0
-578 -8 564  0
578 8  0
578 -564  0
-579 565 566  0
579 -565  0
579 -566  0
-580 6 567  0
580 -6  0
580 -567  0
-581 -6 568  0
581 6  0
581 -568  0
-582 -6 567  0
582 6  0
582 -567  0
-583 6 568  0
583 -6  0
583 -568  0
584 -498 -570  0
-584 498  0
-584 570  0
-585 -13 572  0
585 13  0
585 -572  0
-586 13 573  0
586 -13  0
586 -573  0
-587 13 572  0
587 -13  0
587 -572  0
-588 -13 573  0
588 13  0
588 -573  0
589 -578 -516  0
-589 578  0
-589 516  0
590 -580 -581  0
-590 580  0
-590 581  0
591 -582 -583  0
-591 582  0
-591 583  0
592 -585 -586  0
-592 585  0
-592 586  0
593 -587 -588  0
-593 587  0
-593 588  0
-594 -7 590  0
594 7  0
594 -590  0
-595 -7 591  0
595 7  0
595 -591  0
-596 592 310  0
596 -592  0
596 -310  0
-597 4 593  0
597 -4  0
597 -593  0
-598 -4 593  0
598 4  0
598 -593  0
-599 291 594  0
599 -291  0
599 -594  0
-600 -5 594  0
600 5  0
600 -594  0
601 -569 -595  0
-601 569  0
-601 595  0
-602 5 594  0
602 -5  0
602 -594  0
603 -596 -574  0
-603 596  0
-603 574  0
-604 -11 597  0
604 11  0
604 -597  0
-605 11 598  0
605 -11  0
605 -598  0
-606 5 601  0
606 -5  0
606 -601  0
-607 -5 601  0
607 5  0
607 -601  0
-608 378 603  0
608 -378  0
608 -603  0
609 -604 -605  0
-609 604  0
-609 605  0
610 -600 -606  0
-610 600  0
-610 606  0
611 -607 -602  0
-611 607  0
-611 602  0
-612 -378 609  0
612 378  0
612 -609  0
-613 -4 610  0
613 4  0
613 -610  0
-614 4 611  0
614 -4  0
614 -611  0
615 -608 -612  0
-615 608  0
-615 612  0
616 -613 -614  0
-616 613  0
-616 614  0
-617 571 615  0
617 -571  0
617 -615  0
-618 -615 575  0
618 615  0
618 -575  0
-619 576 615  0
619 -576  0
619 -615  0
-620 577 -615  0
620 -577  0
620 615  0
-621 616 -291  0
621 -616  0
621 291  0
622 -617 -618  0
-622 617  0
-622 618  0
623 -619 -620  0
-623 619  0
-623 620  0
624 -599 -621  0
-624 599  0
-624 621  0
625 6 -622  0
-625 -6  0
-625 622  0
-626 -315 622  0
626 315  0
626 -622  0
627 -6 -622  0
-627 6  0
-627 622  0
-628 -1 622  0
628 1  0
628 -622  0
-629 1 622  0
629 -1  0
629 -622  0
-630 319 622  0
630 -319  0
630 -622  0
-631 -6 623  0
631 6  0
631 -623  0
-632 -315 623  0
632 315  0
632 -623  0
-633 6 623  0
633 -6  0
633 -623  0
-634 -1 623  0
634 1  0
634 -623  0
-635 1 623  0
635 -1  0
635 -623  0
-636 623 319  0
636 -623  0
636 -319  0
-637 625 315  0
637 -625  0
637 -315  0
638 -627 -317  0
-638 627  0
-638 317  0
-639 631 315  0
639 -631  0
639 -315  0
-640 633 315  0
640 -633  0
640 -315  0
641 -637 -626  0
-641 637  0
-641 626  0
-642 638 -476  0
642 -638  0
642 476  0
-643 638 476  0
643 -638  0
643 -476  0
-644 639 -476  0
644 -639  0
644 476  0
645 -632 -640  0
-645 632  0
-645 640  0
-646 639 476  0
646 -639  0
646 -476  0
-647 641 476  0
647 -641  0
647 -476  0
-648 641 -476  0
648 -641  0
648 476  0
-649 476 645  0
649 -476  0
649 -645  0
-650 -476 645  0
650 476  0
650 -645  0
651 -647 -642  0
-651 647  0
-651 642  0
652 -648 -643  0
-652 648  0
-652 643  0
653 -644 -649  0
-653 644  0
-653 649  0
654 -646 -650  0
-654 646  0
-654 650  0
655 -584 -651  0
-655 584  0
-655 651  0
-656 652 319  0
656 -652  0
656 -319  0
-657 1 652  0
657 -1  0
657 -652  0
-658 -1 652  0
658 1  0
658 -652  0
-659 653 589  0
659 -653  0
659 -589  0
-660 654 319  0
660 -654  0
660 -319  0
-661 1 654  0
661 -1  0
661 -654  0
-662 -1 654  0
662 1  0
662 -654  0
-663 624 655  0
663 -624  0
663 -655  0
664 -657 -628  0
-664 657  0
-664 628  0
665 -629 -658  0
-665 629  0
-665 658  0
-666 659 624  0
666 -659  0
666 -624  0
667 -661 -634  0
-667 661  0
-667 634  0
668 -635 -662  0
-668 635  0
-668 662  0
-669 14 664  0
669 -14  0
669 -664  0
-670 -14 665  0
670 14  0
670 -665  0
-671 -14 664  0
671 14  0
671 -664  0
-672 14 665  0
672 -14  0
672 -665  0
-673 14 667  0
673 -14  0
673 -667  0
-674 -14 668  0
674 14  0
674 -668  0
-675 -14 667  0
675 14  0
675 -667  0
-676 14 668  0
676 -14  0
676 -668  0
677 -669 -670  0
-677 669  0
-677 670  0
678 -671 -672  0
-678 671  0
-678 672  0
679 -673 -674  0
-679 673  0
-679 674  0
680 -675 -676  0
-680 675  0
-680 676  0
-681 677 -319  0
681 -677  0
681 319  0
-682 678 -319  0
682 -678  0
682 319  0
-683 -319 679  0
683 319  0
683 -679  0
-684 680 -319  0
684 -680  0
684 319  0
685 -656 -681  0
-685 656  0
-685 681  0
686 -630 -682  0
-686 630  0
-686 682  0
687 -660 -683  0
-687 660  0
-687 683  0
688 -636 -684  0
-688 636  0
-688 684  0
-689 388 685  0
689 -388  0
689 -685  0
-690 686 -388  0
690 -686  0
690 388  0
-691 687 388  0
691 -687  0
691 -388  0
-692 -388 688  0
692 388  0
692 -688  0
693 -689 -690  0
-693 689  0
-693 690  0
694 -691 -692  0
-694 691  0
-694 692  0
-695 -624 693  0
695 624  0
695 -693  0
-696 -624 694  0
696 624  0
696 -694  0
697 -663 -695  0
-697 663  0
-697 695  0
698 -666 -696  0
-698 666  0
-698 696  0
-699 579 697  0
699 -579  0
699 -697  0
-700 698 -579  0
700 -698  0
700 579  0
701 -699 -700  0
-701 699  0
-701 700  0
